old_seq_benchmarks/modules/SlidingNonce/SlidingNonce.baseline.smt2
(set-option :print-success false)
(set-info :smt-lib-version 2.6)
(set-option :smt.mbqi false)
(set-option :model.compact false)
(set-option :model.v2 true)
(set-option :pp.bv_literals false)
; done setting options


(declare-fun tickleBool (Bool) Bool)
(assert (and (tickleBool true) (tickleBool false)))
(declare-sort |T@[Int]Int| 0)
(declare-datatypes ((T@Vec_2977 0)) (((Vec_2977 (|v#Vec_2977| |T@[Int]Int|) (|l#Vec_2977| Int) ) ) ))
(declare-datatypes ((T@$1_SlidingNonce_SlidingNonce 0)) ((($1_SlidingNonce_SlidingNonce (|$min_nonce#$1_SlidingNonce_SlidingNonce| Int) (|$nonce_mask#$1_SlidingNonce_SlidingNonce| Int) ) ) ))
(declare-sort |T@[Int]Bool| 0)
(declare-sort |T@[Int]$1_SlidingNonce_SlidingNonce| 0)
(declare-datatypes ((T@$Memory_10326 0)) ((($Memory_10326 (|domain#$Memory_10326| |T@[Int]Bool|) (|contents#$Memory_10326| |T@[Int]$1_SlidingNonce_SlidingNonce|) ) ) ))
(declare-datatypes ((T@$1_DiemTimestamp_CurrentTimeMicroseconds 0)) ((($1_DiemTimestamp_CurrentTimeMicroseconds (|$microseconds#$1_DiemTimestamp_CurrentTimeMicroseconds| Int) ) ) ))
(declare-sort |T@[Int]$1_DiemTimestamp_CurrentTimeMicroseconds| 0)
(declare-datatypes ((T@$Memory_10094 0)) ((($Memory_10094 (|domain#$Memory_10094| |T@[Int]Bool|) (|contents#$Memory_10094| |T@[Int]$1_DiemTimestamp_CurrentTimeMicroseconds|) ) ) ))
(declare-datatypes ((T@$Location 0)) ((($Global (|a#$Global| Int) ) ($Local (|i#$Local| Int) ) ($Param (|i#$Param| Int) ) ) ))
(declare-datatypes ((T@$Mutation_3601 0)) ((($Mutation_3601 (|l#$Mutation_3601| T@$Location) (|p#$Mutation_3601| T@Vec_2977) (|v#$Mutation_3601| Int) ) ) ))
(declare-datatypes ((T@$Mutation_8050 0)) ((($Mutation_8050 (|l#$Mutation_8050| T@$Location) (|p#$Mutation_8050| T@Vec_2977) (|v#$Mutation_8050| T@Vec_2977) ) ) ))
(declare-datatypes ((T@$Range 0)) ((($Range (|lb#$Range| Int) (|ub#$Range| Int) ) ) ))
(declare-fun $MAX_U8 () Int)
(declare-fun $MAX_U64 () Int)
(declare-fun $MAX_U128 () Int)
(declare-fun |$IsValid'u8'| (Int) Bool)
(declare-fun |$IsValid'u64'| (Int) Bool)
(declare-fun |$IsValid'u128'| (Int) Bool)
(declare-fun |$IsValid'num'| (Int) Bool)
(declare-fun |$IsValid'address'| (Int) Bool)
(declare-fun $InRange (T@$Range Int) Bool)
(declare-fun $ConstMemoryDomain (Bool) |T@[Int]Bool|)
(declare-fun |lambda#0| (Bool) |T@[Int]Bool|)
(declare-fun $EXEC_FAILURE_CODE () Int)
(declare-fun $shl (Int Int) Int)
(declare-fun $shr (Int Int) Int)
(declare-fun |$IsEqual'vec'u8''| (T@Vec_2977 T@Vec_2977) Bool)
(declare-fun InRangeVec_2977 (T@Vec_2977 Int) Bool)
(declare-fun |Select__T@[Int]Int_| (|T@[Int]Int| Int) Int)
(declare-fun |$IsValid'vec'u8''| (T@Vec_2977) Bool)
(declare-fun |$IndexOfVec'u8'| (T@Vec_2977 Int) Int)
(declare-fun $1_Hash_sha2 (T@Vec_2977) T@Vec_2977)
(declare-fun $1_Hash_sha3 (T@Vec_2977) T@Vec_2977)
(declare-fun $1_Signature_$ed25519_validate_pubkey (T@Vec_2977) Bool)
(declare-fun $1_Signature_$ed25519_verify (T@Vec_2977 T@Vec_2977 T@Vec_2977) Bool)
(declare-fun |$IsValid'$1_DiemTimestamp_CurrentTimeMicroseconds'| (T@$1_DiemTimestamp_CurrentTimeMicroseconds) Bool)
(declare-fun $1_SlidingNonce_spec_try_record_nonce (Int Int) Int)
(declare-fun |$IsValid'$1_SlidingNonce_SlidingNonce'| (T@$1_SlidingNonce_SlidingNonce) Bool)
(declare-fun IndexOfVec_2977 (T@Vec_2977 Int) Int)
(declare-fun |Select__T@[Int]Bool_| (|T@[Int]Bool| Int) Bool)
(declare-fun |lambda#2| (Int Int Int |T@[Int]Int| |T@[Int]Int| Int Int) |T@[Int]Int|)
(declare-fun |lambda#3| (Int Int |T@[Int]Int| Int Int Int) |T@[Int]Int|)
(declare-fun |lambda#4| (Int Int Int |T@[Int]Int| |T@[Int]Int| Int Int) |T@[Int]Int|)
(assert (= $MAX_U8 255))
(assert (= $MAX_U64 18446744073709551615))
(assert (= $MAX_U128 340282366920938463463374607431768211455))
(assert (forall ((v Int) ) (! (= (|$IsValid'u8'| v)  (and (>= v 0) (<= v $MAX_U8)))
 :qid |SlidingNoncebaselinebpl.190:23|
 :skolemid |6|
 :pattern ( (|$IsValid'u8'| v))
)))
(assert (forall ((v@@0 Int) ) (! (= (|$IsValid'u64'| v@@0)  (and (>= v@@0 0) (<= v@@0 $MAX_U64)))
 :qid |SlidingNoncebaselinebpl.194:24|
 :skolemid |7|
 :pattern ( (|$IsValid'u64'| v@@0))
)))
(assert (forall ((v@@1 Int) ) (! (= (|$IsValid'u128'| v@@1)  (and (>= v@@1 0) (<= v@@1 $MAX_U128)))
 :qid |SlidingNoncebaselinebpl.198:25|
 :skolemid |8|
 :pattern ( (|$IsValid'u128'| v@@1))
)))
(assert (forall ((v@@2 Int) ) (! (= (|$IsValid'num'| v@@2) true)
 :qid |SlidingNoncebaselinebpl.202:24|
 :skolemid |9|
 :pattern ( (|$IsValid'num'| v@@2))
)))
(assert (forall ((v@@3 Int) ) (! (= (|$IsValid'address'| v@@3) (>= v@@3 0))
 :qid |SlidingNoncebaselinebpl.206:28|
 :skolemid |10|
 :pattern ( (|$IsValid'address'| v@@3))
)))
(assert (forall ((r T@$Range) (i Int) ) (! (= ($InRange r i)  (and (<= (|lb#$Range| r) i) (< i (|ub#$Range| r))))
 :qid |SlidingNoncebaselinebpl.216:19|
 :skolemid |11|
 :pattern ( ($InRange r i))
)))
(assert (= ($ConstMemoryDomain false) (|lambda#0| false)))
(assert (= ($ConstMemoryDomain true) (|lambda#0| true)))
(assert (= $EXEC_FAILURE_CODE (- 0 1)))
(assert (forall ((src1 Int) (p Int) ) (! (= ($shl src1 p) (ite (= p 8) (* src1 256) (ite (= p 16) (* src1 65536) (ite (= p 32) (* src1 4294967296) (ite (= p 64) (* src1 18446744073709551616) (- 0 1))))))
 :qid |SlidingNoncebaselinebpl.482:15|
 :skolemid |15|
 :pattern ( ($shl src1 p))
)))
(assert (forall ((src1@@0 Int) (p@@0 Int) ) (! (= ($shr src1@@0 p@@0) (ite (= p@@0 8) (div src1@@0 256) (ite (= p@@0 16) (div src1@@0 65536) (ite (= p@@0 32) (div src1@@0 4294967296) (ite (= p@@0 64) (div src1@@0 18446744073709551616) (- 0 1))))))
 :qid |SlidingNoncebaselinebpl.491:15|
 :skolemid |16|
 :pattern ( ($shr src1@@0 p@@0))
)))
(assert (forall ((v1 T@Vec_2977) (v2 T@Vec_2977) ) (! (= (|$IsEqual'vec'u8''| v1 v2)  (and (= (|l#Vec_2977| v1) (|l#Vec_2977| v2)) (forall ((i@@0 Int) ) (!  (=> (InRangeVec_2977 v1 i@@0) (= (|Select__T@[Int]Int_| (|v#Vec_2977| v1) i@@0) (|Select__T@[Int]Int_| (|v#Vec_2977| v2) i@@0)))
 :qid |SlidingNoncebaselinebpl.615:13|
 :skolemid |17|
))))
 :qid |SlidingNoncebaselinebpl.613:28|
 :skolemid |18|
 :pattern ( (|$IsEqual'vec'u8''| v1 v2))
)))
(assert (forall ((v@@4 T@Vec_2977) ) (! (= (|$IsValid'vec'u8''| v@@4)  (and (|$IsValid'u64'| (|l#Vec_2977| v@@4)) (forall ((i@@1 Int) ) (!  (=> (InRangeVec_2977 v@@4 i@@1) (|$IsValid'u8'| (|Select__T@[Int]Int_| (|v#Vec_2977| v@@4) i@@1)))
 :qid |SlidingNoncebaselinebpl.621:13|
 :skolemid |19|
))))
 :qid |SlidingNoncebaselinebpl.619:28|
 :skolemid |20|
 :pattern ( (|$IsValid'vec'u8''| v@@4))
)))
(assert (forall ((v@@5 T@Vec_2977) (e Int) ) (! (let ((i@@2 (|$IndexOfVec'u8'| v@@5 e)))
(ite  (not (exists ((i@@3 Int) ) (!  (and (and (|$IsValid'u64'| i@@3) (InRangeVec_2977 v@@5 i@@3)) (= (|Select__T@[Int]Int_| (|v#Vec_2977| v@@5) i@@3) e))
 :qid |SlidingNoncebaselinebpl.626:13|
 :skolemid |21|
))) (= i@@2 (- 0 1))  (and (and (and (|$IsValid'u64'| i@@2) (InRangeVec_2977 v@@5 i@@2)) (= (|Select__T@[Int]Int_| (|v#Vec_2977| v@@5) i@@2) e)) (forall ((j Int) ) (!  (=> (and (and (|$IsValid'u64'| j) (>= j 0)) (< j i@@2)) (not (= (|Select__T@[Int]Int_| (|v#Vec_2977| v@@5) j) e)))
 :qid |SlidingNoncebaselinebpl.634:17|
 :skolemid |22|
)))))
 :qid |SlidingNoncebaselinebpl.630:15|
 :skolemid |23|
 :pattern ( (|$IndexOfVec'u8'| v@@5 e))
)))
(assert (forall ((v1@@0 T@Vec_2977) (v2@@0 T@Vec_2977) ) (! (= (|$IsEqual'vec'u8''| v1@@0 v2@@0) (|$IsEqual'vec'u8''| ($1_Hash_sha2 v1@@0) ($1_Hash_sha2 v2@@0)))
 :qid |SlidingNoncebaselinebpl.807:15|
 :skolemid |24|
 :pattern ( ($1_Hash_sha2 v1@@0) ($1_Hash_sha2 v2@@0))
)))
(assert (forall ((v1@@1 T@Vec_2977) (v2@@1 T@Vec_2977) ) (! (= (|$IsEqual'vec'u8''| v1@@1 v2@@1) (|$IsEqual'vec'u8''| ($1_Hash_sha3 v1@@1) ($1_Hash_sha3 v2@@1)))
 :qid |SlidingNoncebaselinebpl.823:15|
 :skolemid |25|
 :pattern ( ($1_Hash_sha3 v1@@1) ($1_Hash_sha3 v2@@1))
)))
(assert (forall ((k1 T@Vec_2977) (k2 T@Vec_2977) ) (!  (=> (|$IsEqual'vec'u8''| k1 k2) (= ($1_Signature_$ed25519_validate_pubkey k1) ($1_Signature_$ed25519_validate_pubkey k2)))
 :qid |SlidingNoncebaselinebpl.870:15|
 :skolemid |26|
 :pattern ( ($1_Signature_$ed25519_validate_pubkey k1) ($1_Signature_$ed25519_validate_pubkey k2))
)))
(assert (forall ((s1 T@Vec_2977) (s2 T@Vec_2977) (k1@@0 T@Vec_2977) (k2@@0 T@Vec_2977) (m1 T@Vec_2977) (m2 T@Vec_2977) ) (!  (=> (and (and (|$IsEqual'vec'u8''| s1 s2) (|$IsEqual'vec'u8''| k1@@0 k2@@0)) (|$IsEqual'vec'u8''| m1 m2)) (= ($1_Signature_$ed25519_verify s1 k1@@0 m1) ($1_Signature_$ed25519_verify s2 k2@@0 m2)))
 :qid |SlidingNoncebaselinebpl.873:15|
 :skolemid |27|
 :pattern ( ($1_Signature_$ed25519_verify s1 k1@@0 m1) ($1_Signature_$ed25519_verify s2 k2@@0 m2))
)))
(assert (forall ((s T@$1_DiemTimestamp_CurrentTimeMicroseconds) ) (! (= (|$IsValid'$1_DiemTimestamp_CurrentTimeMicroseconds'| s) (|$IsValid'u64'| (|$microseconds#$1_DiemTimestamp_CurrentTimeMicroseconds| s)))
 :qid |SlidingNoncebaselinebpl.947:61|
 :skolemid |28|
 :pattern ( (|$IsValid'$1_DiemTimestamp_CurrentTimeMicroseconds'| s))
)))
(assert (forall ((account Int) (seq_nonce Int) ) (! (let (($$res ($1_SlidingNonce_spec_try_record_nonce account seq_nonce)))
(|$IsValid'u64'| $$res))
 :qid |SlidingNoncebaselinebpl.957:15|
 :skolemid |29|
)))
(assert (forall ((s@@0 T@$1_SlidingNonce_SlidingNonce) ) (! (= (|$IsValid'$1_SlidingNonce_SlidingNonce'| s@@0)  (and (|$IsValid'u64'| (|$min_nonce#$1_SlidingNonce_SlidingNonce| s@@0)) (|$IsValid'u128'| (|$nonce_mask#$1_SlidingNonce_SlidingNonce| s@@0))))
 :qid |SlidingNoncebaselinebpl.970:49|
 :skolemid |30|
 :pattern ( (|$IsValid'$1_SlidingNonce_SlidingNonce'| s@@0))
)))
(assert (forall ((v@@6 T@Vec_2977) (i@@4 Int) ) (! (= (InRangeVec_2977 v@@6 i@@4)  (and (>= i@@4 0) (< i@@4 (|l#Vec_2977| v@@6))))
 :qid |SlidingNoncebaselinebpl.122:24|
 :skolemid |3|
 :pattern ( (InRangeVec_2977 v@@6 i@@4))
)))
(assert (forall ((v@@7 T@Vec_2977) (e@@0 Int) ) (! (let ((i@@5 (IndexOfVec_2977 v@@7 e@@0)))
(ite  (not (exists ((i@@6 Int) ) (!  (and (InRangeVec_2977 v@@7 i@@6) (= (|Select__T@[Int]Int_| (|v#Vec_2977| v@@7) i@@6) e@@0))
 :qid |SlidingNoncebaselinebpl.109:13|
 :skolemid |0|
))) (= i@@5 (- 0 1))  (and (and (InRangeVec_2977 v@@7 i@@5) (= (|Select__T@[Int]Int_| (|v#Vec_2977| v@@7) i@@5) e@@0)) (forall ((j@@0 Int) ) (!  (=> (and (>= j@@0 0) (< j@@0 i@@5)) (not (= (|Select__T@[Int]Int_| (|v#Vec_2977| v@@7) j@@0) e@@0)))
 :qid |SlidingNoncebaselinebpl.117:17|
 :skolemid |1|
)))))
 :qid |SlidingNoncebaselinebpl.113:32|
 :skolemid |2|
 :pattern ( (IndexOfVec_2977 v@@7 e@@0))
)))
(assert (forall ((|l#0| Bool) (i@@7 Int) ) (! (= (|Select__T@[Int]Bool_| (|lambda#0| |l#0|) i@@7) |l#0|)
 :qid |SlidingNoncebaselinebpl.275:54|
 :skolemid |33|
 :pattern ( (|Select__T@[Int]Bool_| (|lambda#0| |l#0|) i@@7))
)))
(assert (forall ((|l#0@@0| Int) (|l#1| Int) (|l#2| Int) (|l#3| |T@[Int]Int|) (|l#4| |T@[Int]Int|) (|l#5| Int) (|l#6| Int) (i@@8 Int) ) (! (= (|Select__T@[Int]Int_| (|lambda#2| |l#0@@0| |l#1| |l#2| |l#3| |l#4| |l#5| |l#6|) i@@8) (ite  (and (>= i@@8 |l#0@@0|) (< i@@8 |l#1|)) (ite (< i@@8 |l#2|) (|Select__T@[Int]Int_| |l#3| i@@8) (|Select__T@[Int]Int_| |l#4| (- i@@8 |l#5|))) |l#6|))
 :qid |SlidingNoncebaselinebpl.73:19|
 :skolemid |34|
 :pattern ( (|Select__T@[Int]Int_| (|lambda#2| |l#0@@0| |l#1| |l#2| |l#3| |l#4| |l#5| |l#6|) i@@8))
)))
(assert (forall ((|l#0@@1| Int) (|l#1@@0| Int) (|l#2@@0| |T@[Int]Int|) (|l#3@@0| Int) (|l#4@@0| Int) (|l#5@@0| Int) (i@@9 Int) ) (! (= (|Select__T@[Int]Int_| (|lambda#3| |l#0@@1| |l#1@@0| |l#2@@0| |l#3@@0| |l#4@@0| |l#5@@0|) i@@9) (ite  (and (<= |l#0@@1| i@@9) (< i@@9 |l#1@@0|)) (|Select__T@[Int]Int_| |l#2@@0| (- (- |l#3@@0| i@@9) |l#4@@0|)) |l#5@@0|))
 :qid |SlidingNoncebaselinebpl.82:30|
 :skolemid |35|
 :pattern ( (|Select__T@[Int]Int_| (|lambda#3| |l#0@@1| |l#1@@0| |l#2@@0| |l#3@@0| |l#4@@0| |l#5@@0|) i@@9))
)))
(assert (forall ((|l#0@@2| Int) (|l#1@@1| Int) (|l#2@@1| Int) (|l#3@@1| |T@[Int]Int|) (|l#4@@1| |T@[Int]Int|) (|l#5@@1| Int) (|l#6@@0| Int) (j@@1 Int) ) (! (= (|Select__T@[Int]Int_| (|lambda#4| |l#0@@2| |l#1@@1| |l#2@@1| |l#3@@1| |l#4@@1| |l#5@@1| |l#6@@0|) j@@1) (ite  (and (>= j@@1 |l#0@@2|) (< j@@1 |l#1@@1|)) (ite (< j@@1 |l#2@@1|) (|Select__T@[Int]Int_| |l#3@@1| j@@1) (|Select__T@[Int]Int_| |l#4@@1| (+ j@@1 |l#5@@1|))) |l#6@@0|))
 :qid |SlidingNoncebaselinebpl.63:20|
 :skolemid |36|
 :pattern ( (|Select__T@[Int]Int_| (|lambda#4| |l#0@@2| |l#1@@1| |l#2@@1| |l#3@@1| |l#4@@1| |l#5@@1| |l#6@@0|) j@@1))
)))
(declare-fun ControlFlow (Int Int) Int)
(declare-fun $abort_flag@0 () Bool)
(declare-fun $1_DiemTimestamp_CurrentTimeMicroseconds_$memory () T@$Memory_10094)
(declare-fun $1_SlidingNonce_SlidingNonce_$memory@1 () T@$Memory_10326)
(declare-fun $1_SlidingNonce_SlidingNonce_$memory () T@$Memory_10326)
(declare-fun _$t0 () Int)
(declare-fun $t8@0 () Int)
(declare-fun $abort_code@1 () Int)
(declare-fun $1_SlidingNonce_SlidingNonce_$memory@0 () T@$Memory_10326)
(declare-fun |Store__T@[Int]Bool_| (|T@[Int]Bool| Int Bool) |T@[Int]Bool|)
(assert (forall ( ( ?x0 |T@[Int]Bool|) ( ?x1 Int) ( ?x2 Bool)) (! (= (|Select__T@[Int]Bool_| (|Store__T@[Int]Bool_| ?x0 ?x1 ?x2) ?x1)  ?x2) :weight 0)))
(assert (forall ( ( ?x0 |T@[Int]Bool|) ( ?x1 Int) ( ?y1 Int) ( ?x2 Bool)) (! (=>  (not (= ?x1 ?y1)) (= (|Select__T@[Int]Bool_| (|Store__T@[Int]Bool_| ?x0 ?x1 ?x2) ?y1) (|Select__T@[Int]Bool_| ?x0 ?y1))) :weight 0)))
(declare-fun |Store__T@[Int]$1_SlidingNonce_SlidingNonce_| (|T@[Int]$1_SlidingNonce_SlidingNonce| Int T@$1_SlidingNonce_SlidingNonce) |T@[Int]$1_SlidingNonce_SlidingNonce|)
(declare-fun |Select__T@[Int]$1_SlidingNonce_SlidingNonce_| (|T@[Int]$1_SlidingNonce_SlidingNonce| Int) T@$1_SlidingNonce_SlidingNonce)
(assert (forall ( ( ?x0 |T@[Int]$1_SlidingNonce_SlidingNonce|) ( ?x1 Int) ( ?x2 T@$1_SlidingNonce_SlidingNonce)) (! (= (|Select__T@[Int]$1_SlidingNonce_SlidingNonce_| (|Store__T@[Int]$1_SlidingNonce_SlidingNonce_| ?x0 ?x1 ?x2) ?x1)  ?x2) :weight 0)))
(assert (forall ( ( ?x0 |T@[Int]$1_SlidingNonce_SlidingNonce|) ( ?x1 Int) ( ?y1 Int) ( ?x2 T@$1_SlidingNonce_SlidingNonce)) (! (=>  (not (= ?x1 ?y1)) (= (|Select__T@[Int]$1_SlidingNonce_SlidingNonce_| (|Store__T@[Int]$1_SlidingNonce_SlidingNonce_| ?x0 ?x1 ?x2) ?y1) (|Select__T@[Int]$1_SlidingNonce_SlidingNonce_| ?x0 ?y1))) :weight 0)))
(declare-fun $t11@0 () T@$1_SlidingNonce_SlidingNonce)
(declare-fun $abort_code@0 () Int)
(declare-fun inline$$Not$0$dst@1 () Bool)
(declare-fun $1_SlidingNonce_SlidingNonce_$modifies () |T@[Int]Bool|)
(declare-fun $t7 () Int)
(declare-fun $t4@0 () Bool)
(declare-fun $t3 () Int)
(push 1)
(set-info :boogie-vc-id $1_SlidingNonce_publish$verify)
(set-option :timeout 40000)
(set-option :rlimit 0)
(assert (not
 (=> (= (ControlFlow 0 0) 13183) (let ((anon12_Else_correct  (=> (not $abort_flag@0) (and (=> (= (ControlFlow 0 12088) (- 0 13545)) (=> (|Select__T@[Int]Bool_| (|domain#$Memory_10094| $1_DiemTimestamp_CurrentTimeMicroseconds_$memory) 173345816) (|Select__T@[Int]Bool_| (|domain#$Memory_10326| $1_SlidingNonce_SlidingNonce_$memory@1) 173345816))) (=> (=> (|Select__T@[Int]Bool_| (|domain#$Memory_10094| $1_DiemTimestamp_CurrentTimeMicroseconds_$memory) 173345816) (|Select__T@[Int]Bool_| (|domain#$Memory_10326| $1_SlidingNonce_SlidingNonce_$memory@1) 173345816)) (and (=> (= (ControlFlow 0 12088) (- 0 13559)) (=> (|Select__T@[Int]Bool_| (|domain#$Memory_10094| $1_DiemTimestamp_CurrentTimeMicroseconds_$memory) 173345816) (|Select__T@[Int]Bool_| (|domain#$Memory_10326| $1_SlidingNonce_SlidingNonce_$memory@1) 186537453))) (=> (=> (|Select__T@[Int]Bool_| (|domain#$Memory_10094| $1_DiemTimestamp_CurrentTimeMicroseconds_$memory) 173345816) (|Select__T@[Int]Bool_| (|domain#$Memory_10326| $1_SlidingNonce_SlidingNonce_$memory@1) 186537453)) (and (=> (= (ControlFlow 0 12088) (- 0 13576)) (not (|Select__T@[Int]Bool_| (|domain#$Memory_10326| $1_SlidingNonce_SlidingNonce_$memory) _$t0))) (=> (not (|Select__T@[Int]Bool_| (|domain#$Memory_10326| $1_SlidingNonce_SlidingNonce_$memory) _$t0)) (=> (= (ControlFlow 0 12088) (- 0 13587)) (|Select__T@[Int]Bool_| (|domain#$Memory_10326| $1_SlidingNonce_SlidingNonce_$memory@1) _$t0)))))))))))
(let ((L3_correct  (and (=> (= (ControlFlow 0 11982) (- 0 13515)) (|Select__T@[Int]Bool_| (|domain#$Memory_10326| $1_SlidingNonce_SlidingNonce_$memory) _$t0)) (=> (|Select__T@[Int]Bool_| (|domain#$Memory_10326| $1_SlidingNonce_SlidingNonce_$memory) _$t0) (=> (= (ControlFlow 0 11982) (- 0 13521)) (and (|Select__T@[Int]Bool_| (|domain#$Memory_10326| $1_SlidingNonce_SlidingNonce_$memory) _$t0) (= 6 $t8@0)))))))
(let ((anon12_Then_correct  (=> (and (and $abort_flag@0 (= $abort_code@1 $abort_code@1)) (and (= $t8@0 $abort_code@1) (= (ControlFlow 0 12102) 11982))) L3_correct)))
(let ((anon11_Then$1_correct  (=> (= $1_SlidingNonce_SlidingNonce_$memory@1 $1_SlidingNonce_SlidingNonce_$memory) (=> (and (= $abort_flag@0 true) (= $abort_code@1 $EXEC_FAILURE_CODE)) (and (=> (= (ControlFlow 0 12152) 12102) anon12_Then_correct) (=> (= (ControlFlow 0 12152) 12088) anon12_Else_correct))))))
(let ((anon11_Then_correct  (=> (and (|Select__T@[Int]Bool_| (|domain#$Memory_10326| $1_SlidingNonce_SlidingNonce_$memory) _$t0) (= (ControlFlow 0 12150) 12152)) anon11_Then$1_correct)))
(let ((anon11_Else_correct  (=> (not (|Select__T@[Int]Bool_| (|domain#$Memory_10326| $1_SlidingNonce_SlidingNonce_$memory) _$t0)) (=> (and (and (= $1_SlidingNonce_SlidingNonce_$memory@0 ($Memory_10326 (|Store__T@[Int]Bool_| (|domain#$Memory_10326| $1_SlidingNonce_SlidingNonce_$memory) _$t0 true) (|Store__T@[Int]$1_SlidingNonce_SlidingNonce_| (|contents#$Memory_10326| $1_SlidingNonce_SlidingNonce_$memory) _$t0 $t11@0))) (= $1_SlidingNonce_SlidingNonce_$memory@1 $1_SlidingNonce_SlidingNonce_$memory@0)) (and (= $abort_flag@0 false) (= $abort_code@1 $abort_code@0))) (and (=> (= (ControlFlow 0 12028) 12102) anon12_Then_correct) (=> (= (ControlFlow 0 12028) 12088) anon12_Else_correct))))))
(let ((anon10_Then_correct  (=> (and (and inline$$Not$0$dst@1 (|$IsValid'u64'| 0)) (and (|$IsValid'u128'| 0) (= $t11@0 ($1_SlidingNonce_SlidingNonce 0 0)))) (and (=> (= (ControlFlow 0 12010) (- 0 13409)) (|Select__T@[Int]Bool_| $1_SlidingNonce_SlidingNonce_$modifies _$t0)) (=> (|Select__T@[Int]Bool_| $1_SlidingNonce_SlidingNonce_$modifies _$t0) (and (=> (= (ControlFlow 0 12010) 12150) anon11_Then_correct) (=> (= (ControlFlow 0 12010) 12028) anon11_Else_correct)))))))
(let ((anon10_Else_correct  (=> (and (and (not inline$$Not$0$dst@1) (= $t7 $t7)) (and (= $t8@0 $t7) (= (ControlFlow 0 11950) 11982))) L3_correct)))
(let ((anon0$2_correct  (=> (|$IsValid'u64'| 4) (=> (and (and (|$IsValid'u64'| $t7) (= $t7 6)) (and (= $t7 $t7) (= inline$$Not$0$dst@1 inline$$Not$0$dst@1))) (and (=> (= (ControlFlow 0 11934) 12010) anon10_Then_correct) (=> (= (ControlFlow 0 11934) 11950) anon10_Else_correct))))))
(let ((inline$$Not$0$anon0_correct  (=> (and (= inline$$Not$0$dst@1  (not $t4@0)) (= (ControlFlow 0 11898) 11934)) anon0$2_correct)))
(let ((anon0$1_correct  (=> (and (=> (|Select__T@[Int]Bool_| (|domain#$Memory_10094| $1_DiemTimestamp_CurrentTimeMicroseconds_$memory) 173345816) (|Select__T@[Int]Bool_| (|domain#$Memory_10326| $1_SlidingNonce_SlidingNonce_$memory) 173345816)) (=> (|Select__T@[Int]Bool_| (|domain#$Memory_10094| $1_DiemTimestamp_CurrentTimeMicroseconds_$memory) 173345816) (|Select__T@[Int]Bool_| (|domain#$Memory_10326| $1_SlidingNonce_SlidingNonce_$memory) 186537453))) (=> (and (and (and (|$IsValid'address'| _$t0) (forall (($a_0 Int) ) (! (let (($rsc (|Select__T@[Int]$1_SlidingNonce_SlidingNonce_| (|contents#$Memory_10326| $1_SlidingNonce_SlidingNonce_$memory) $a_0)))
(|$IsValid'$1_SlidingNonce_SlidingNonce'| $rsc))
 :qid |SlidingNoncebaselinebpl.1019:20|
 :skolemid |31|
 :pattern ( (|Select__T@[Int]$1_SlidingNonce_SlidingNonce_| (|contents#$Memory_10326| $1_SlidingNonce_SlidingNonce_$memory) $a_0))
))) (and (|Select__T@[Int]Bool_| $1_SlidingNonce_SlidingNonce_$modifies _$t0) (= _$t0 _$t0))) (and (and (|$IsValid'address'| $t3) (= $t3 _$t0)) (and (= $t4@0 (|Select__T@[Int]Bool_| (|domain#$Memory_10326| $1_SlidingNonce_SlidingNonce_$memory) $t3)) (= (ControlFlow 0 11904) 11898)))) inline$$Not$0$anon0_correct))))
(let ((anon0_correct  (=> (= (ControlFlow 0 13183) 11904) anon0$1_correct)))
anon0_correct)))))))))))))
))
(check-sat)
(pop 1)
; Valid
(reset)
(set-option :rlimit 0)
(set-option :print-success false)
(set-info :smt-lib-version 2.6)
(set-option :smt.mbqi false)
(set-option :model.compact false)
(set-option :model.v2 true)
(set-option :pp.bv_literals false)
; done setting options


(declare-fun tickleBool (Bool) Bool)
(assert (and (tickleBool true) (tickleBool false)))
(declare-sort |T@[Int]Int| 0)
(declare-datatypes ((T@Vec_2977 0)) (((Vec_2977 (|v#Vec_2977| |T@[Int]Int|) (|l#Vec_2977| Int) ) ) ))
(declare-datatypes ((T@$1_SlidingNonce_SlidingNonce 0)) ((($1_SlidingNonce_SlidingNonce (|$min_nonce#$1_SlidingNonce_SlidingNonce| Int) (|$nonce_mask#$1_SlidingNonce_SlidingNonce| Int) ) ) ))
(declare-sort |T@[Int]Bool| 0)
(declare-sort |T@[Int]$1_SlidingNonce_SlidingNonce| 0)
(declare-datatypes ((T@$Memory_10326 0)) ((($Memory_10326 (|domain#$Memory_10326| |T@[Int]Bool|) (|contents#$Memory_10326| |T@[Int]$1_SlidingNonce_SlidingNonce|) ) ) ))
(declare-datatypes ((T@$1_DiemTimestamp_CurrentTimeMicroseconds 0)) ((($1_DiemTimestamp_CurrentTimeMicroseconds (|$microseconds#$1_DiemTimestamp_CurrentTimeMicroseconds| Int) ) ) ))
(declare-sort |T@[Int]$1_DiemTimestamp_CurrentTimeMicroseconds| 0)
(declare-datatypes ((T@$Memory_10094 0)) ((($Memory_10094 (|domain#$Memory_10094| |T@[Int]Bool|) (|contents#$Memory_10094| |T@[Int]$1_DiemTimestamp_CurrentTimeMicroseconds|) ) ) ))
(declare-datatypes ((T@$Location 0)) ((($Global (|a#$Global| Int) ) ($Local (|i#$Local| Int) ) ($Param (|i#$Param| Int) ) ) ))
(declare-datatypes ((T@$Mutation_3601 0)) ((($Mutation_3601 (|l#$Mutation_3601| T@$Location) (|p#$Mutation_3601| T@Vec_2977) (|v#$Mutation_3601| Int) ) ) ))
(declare-datatypes ((T@$Mutation_8050 0)) ((($Mutation_8050 (|l#$Mutation_8050| T@$Location) (|p#$Mutation_8050| T@Vec_2977) (|v#$Mutation_8050| T@Vec_2977) ) ) ))
(declare-datatypes ((T@$Range 0)) ((($Range (|lb#$Range| Int) (|ub#$Range| Int) ) ) ))
(declare-fun $MAX_U8 () Int)
(declare-fun $MAX_U64 () Int)
(declare-fun $MAX_U128 () Int)
(declare-fun |$IsValid'u8'| (Int) Bool)
(declare-fun |$IsValid'u64'| (Int) Bool)
(declare-fun |$IsValid'u128'| (Int) Bool)
(declare-fun |$IsValid'num'| (Int) Bool)
(declare-fun |$IsValid'address'| (Int) Bool)
(declare-fun $InRange (T@$Range Int) Bool)
(declare-fun $ConstMemoryDomain (Bool) |T@[Int]Bool|)
(declare-fun |lambda#0| (Bool) |T@[Int]Bool|)
(declare-fun $EXEC_FAILURE_CODE () Int)
(declare-fun $shl (Int Int) Int)
(declare-fun $shr (Int Int) Int)
(declare-fun |$IsEqual'vec'u8''| (T@Vec_2977 T@Vec_2977) Bool)
(declare-fun InRangeVec_2977 (T@Vec_2977 Int) Bool)
(declare-fun |Select__T@[Int]Int_| (|T@[Int]Int| Int) Int)
(declare-fun |$IsValid'vec'u8''| (T@Vec_2977) Bool)
(declare-fun |$IndexOfVec'u8'| (T@Vec_2977 Int) Int)
(declare-fun $1_Hash_sha2 (T@Vec_2977) T@Vec_2977)
(declare-fun $1_Hash_sha3 (T@Vec_2977) T@Vec_2977)
(declare-fun $1_Signature_$ed25519_validate_pubkey (T@Vec_2977) Bool)
(declare-fun $1_Signature_$ed25519_verify (T@Vec_2977 T@Vec_2977 T@Vec_2977) Bool)
(declare-fun |$IsValid'$1_DiemTimestamp_CurrentTimeMicroseconds'| (T@$1_DiemTimestamp_CurrentTimeMicroseconds) Bool)
(declare-fun $1_SlidingNonce_spec_try_record_nonce (Int Int) Int)
(declare-fun |$IsValid'$1_SlidingNonce_SlidingNonce'| (T@$1_SlidingNonce_SlidingNonce) Bool)
(declare-fun IndexOfVec_2977 (T@Vec_2977 Int) Int)
(declare-fun |Select__T@[Int]Bool_| (|T@[Int]Bool| Int) Bool)
(declare-fun |lambda#2| (Int Int Int |T@[Int]Int| |T@[Int]Int| Int Int) |T@[Int]Int|)
(declare-fun |lambda#3| (Int Int |T@[Int]Int| Int Int Int) |T@[Int]Int|)
(declare-fun |lambda#4| (Int Int Int |T@[Int]Int| |T@[Int]Int| Int Int) |T@[Int]Int|)
(assert (= $MAX_U8 255))
(assert (= $MAX_U64 18446744073709551615))
(assert (= $MAX_U128 340282366920938463463374607431768211455))
(assert (forall ((v Int) ) (! (= (|$IsValid'u8'| v)  (and (>= v 0) (<= v $MAX_U8)))
 :qid |SlidingNoncebaselinebpl.190:23|
 :skolemid |6|
 :pattern ( (|$IsValid'u8'| v))
)))
(assert (forall ((v@@0 Int) ) (! (= (|$IsValid'u64'| v@@0)  (and (>= v@@0 0) (<= v@@0 $MAX_U64)))
 :qid |SlidingNoncebaselinebpl.194:24|
 :skolemid |7|
 :pattern ( (|$IsValid'u64'| v@@0))
)))
(assert (forall ((v@@1 Int) ) (! (= (|$IsValid'u128'| v@@1)  (and (>= v@@1 0) (<= v@@1 $MAX_U128)))
 :qid |SlidingNoncebaselinebpl.198:25|
 :skolemid |8|
 :pattern ( (|$IsValid'u128'| v@@1))
)))
(assert (forall ((v@@2 Int) ) (! (= (|$IsValid'num'| v@@2) true)
 :qid |SlidingNoncebaselinebpl.202:24|
 :skolemid |9|
 :pattern ( (|$IsValid'num'| v@@2))
)))
(assert (forall ((v@@3 Int) ) (! (= (|$IsValid'address'| v@@3) (>= v@@3 0))
 :qid |SlidingNoncebaselinebpl.206:28|
 :skolemid |10|
 :pattern ( (|$IsValid'address'| v@@3))
)))
(assert (forall ((r T@$Range) (i Int) ) (! (= ($InRange r i)  (and (<= (|lb#$Range| r) i) (< i (|ub#$Range| r))))
 :qid |SlidingNoncebaselinebpl.216:19|
 :skolemid |11|
 :pattern ( ($InRange r i))
)))
(assert (= ($ConstMemoryDomain false) (|lambda#0| false)))
(assert (= ($ConstMemoryDomain true) (|lambda#0| true)))
(assert (= $EXEC_FAILURE_CODE (- 0 1)))
(assert (forall ((src1 Int) (p Int) ) (! (= ($shl src1 p) (ite (= p 8) (* src1 256) (ite (= p 16) (* src1 65536) (ite (= p 32) (* src1 4294967296) (ite (= p 64) (* src1 18446744073709551616) (- 0 1))))))
 :qid |SlidingNoncebaselinebpl.482:15|
 :skolemid |15|
 :pattern ( ($shl src1 p))
)))
(assert (forall ((src1@@0 Int) (p@@0 Int) ) (! (= ($shr src1@@0 p@@0) (ite (= p@@0 8) (div src1@@0 256) (ite (= p@@0 16) (div src1@@0 65536) (ite (= p@@0 32) (div src1@@0 4294967296) (ite (= p@@0 64) (div src1@@0 18446744073709551616) (- 0 1))))))
 :qid |SlidingNoncebaselinebpl.491:15|
 :skolemid |16|
 :pattern ( ($shr src1@@0 p@@0))
)))
(assert (forall ((v1 T@Vec_2977) (v2 T@Vec_2977) ) (! (= (|$IsEqual'vec'u8''| v1 v2)  (and (= (|l#Vec_2977| v1) (|l#Vec_2977| v2)) (forall ((i@@0 Int) ) (!  (=> (InRangeVec_2977 v1 i@@0) (= (|Select__T@[Int]Int_| (|v#Vec_2977| v1) i@@0) (|Select__T@[Int]Int_| (|v#Vec_2977| v2) i@@0)))
 :qid |SlidingNoncebaselinebpl.615:13|
 :skolemid |17|
))))
 :qid |SlidingNoncebaselinebpl.613:28|
 :skolemid |18|
 :pattern ( (|$IsEqual'vec'u8''| v1 v2))
)))
(assert (forall ((v@@4 T@Vec_2977) ) (! (= (|$IsValid'vec'u8''| v@@4)  (and (|$IsValid'u64'| (|l#Vec_2977| v@@4)) (forall ((i@@1 Int) ) (!  (=> (InRangeVec_2977 v@@4 i@@1) (|$IsValid'u8'| (|Select__T@[Int]Int_| (|v#Vec_2977| v@@4) i@@1)))
 :qid |SlidingNoncebaselinebpl.621:13|
 :skolemid |19|
))))
 :qid |SlidingNoncebaselinebpl.619:28|
 :skolemid |20|
 :pattern ( (|$IsValid'vec'u8''| v@@4))
)))
(assert (forall ((v@@5 T@Vec_2977) (e Int) ) (! (let ((i@@2 (|$IndexOfVec'u8'| v@@5 e)))
(ite  (not (exists ((i@@3 Int) ) (!  (and (and (|$IsValid'u64'| i@@3) (InRangeVec_2977 v@@5 i@@3)) (= (|Select__T@[Int]Int_| (|v#Vec_2977| v@@5) i@@3) e))
 :qid |SlidingNoncebaselinebpl.626:13|
 :skolemid |21|
))) (= i@@2 (- 0 1))  (and (and (and (|$IsValid'u64'| i@@2) (InRangeVec_2977 v@@5 i@@2)) (= (|Select__T@[Int]Int_| (|v#Vec_2977| v@@5) i@@2) e)) (forall ((j Int) ) (!  (=> (and (and (|$IsValid'u64'| j) (>= j 0)) (< j i@@2)) (not (= (|Select__T@[Int]Int_| (|v#Vec_2977| v@@5) j) e)))
 :qid |SlidingNoncebaselinebpl.634:17|
 :skolemid |22|
)))))
 :qid |SlidingNoncebaselinebpl.630:15|
 :skolemid |23|
 :pattern ( (|$IndexOfVec'u8'| v@@5 e))
)))
(assert (forall ((v1@@0 T@Vec_2977) (v2@@0 T@Vec_2977) ) (! (= (|$IsEqual'vec'u8''| v1@@0 v2@@0) (|$IsEqual'vec'u8''| ($1_Hash_sha2 v1@@0) ($1_Hash_sha2 v2@@0)))
 :qid |SlidingNoncebaselinebpl.807:15|
 :skolemid |24|
 :pattern ( ($1_Hash_sha2 v1@@0) ($1_Hash_sha2 v2@@0))
)))
(assert (forall ((v1@@1 T@Vec_2977) (v2@@1 T@Vec_2977) ) (! (= (|$IsEqual'vec'u8''| v1@@1 v2@@1) (|$IsEqual'vec'u8''| ($1_Hash_sha3 v1@@1) ($1_Hash_sha3 v2@@1)))
 :qid |SlidingNoncebaselinebpl.823:15|
 :skolemid |25|
 :pattern ( ($1_Hash_sha3 v1@@1) ($1_Hash_sha3 v2@@1))
)))
(assert (forall ((k1 T@Vec_2977) (k2 T@Vec_2977) ) (!  (=> (|$IsEqual'vec'u8''| k1 k2) (= ($1_Signature_$ed25519_validate_pubkey k1) ($1_Signature_$ed25519_validate_pubkey k2)))
 :qid |SlidingNoncebaselinebpl.870:15|
 :skolemid |26|
 :pattern ( ($1_Signature_$ed25519_validate_pubkey k1) ($1_Signature_$ed25519_validate_pubkey k2))
)))
(assert (forall ((s1 T@Vec_2977) (s2 T@Vec_2977) (k1@@0 T@Vec_2977) (k2@@0 T@Vec_2977) (m1 T@Vec_2977) (m2 T@Vec_2977) ) (!  (=> (and (and (|$IsEqual'vec'u8''| s1 s2) (|$IsEqual'vec'u8''| k1@@0 k2@@0)) (|$IsEqual'vec'u8''| m1 m2)) (= ($1_Signature_$ed25519_verify s1 k1@@0 m1) ($1_Signature_$ed25519_verify s2 k2@@0 m2)))
 :qid |SlidingNoncebaselinebpl.873:15|
 :skolemid |27|
 :pattern ( ($1_Signature_$ed25519_verify s1 k1@@0 m1) ($1_Signature_$ed25519_verify s2 k2@@0 m2))
)))
(assert (forall ((s T@$1_DiemTimestamp_CurrentTimeMicroseconds) ) (! (= (|$IsValid'$1_DiemTimestamp_CurrentTimeMicroseconds'| s) (|$IsValid'u64'| (|$microseconds#$1_DiemTimestamp_CurrentTimeMicroseconds| s)))
 :qid |SlidingNoncebaselinebpl.947:61|
 :skolemid |28|
 :pattern ( (|$IsValid'$1_DiemTimestamp_CurrentTimeMicroseconds'| s))
)))
(assert (forall ((account Int) (seq_nonce Int) ) (! (let (($$res ($1_SlidingNonce_spec_try_record_nonce account seq_nonce)))
(|$IsValid'u64'| $$res))
 :qid |SlidingNoncebaselinebpl.957:15|
 :skolemid |29|
)))
(assert (forall ((s@@0 T@$1_SlidingNonce_SlidingNonce) ) (! (= (|$IsValid'$1_SlidingNonce_SlidingNonce'| s@@0)  (and (|$IsValid'u64'| (|$min_nonce#$1_SlidingNonce_SlidingNonce| s@@0)) (|$IsValid'u128'| (|$nonce_mask#$1_SlidingNonce_SlidingNonce| s@@0))))
 :qid |SlidingNoncebaselinebpl.970:49|
 :skolemid |30|
 :pattern ( (|$IsValid'$1_SlidingNonce_SlidingNonce'| s@@0))
)))
(assert (forall ((v@@6 T@Vec_2977) (i@@4 Int) ) (! (= (InRangeVec_2977 v@@6 i@@4)  (and (>= i@@4 0) (< i@@4 (|l#Vec_2977| v@@6))))
 :qid |SlidingNoncebaselinebpl.122:24|
 :skolemid |3|
 :pattern ( (InRangeVec_2977 v@@6 i@@4))
)))
(assert (forall ((v@@7 T@Vec_2977) (e@@0 Int) ) (! (let ((i@@5 (IndexOfVec_2977 v@@7 e@@0)))
(ite  (not (exists ((i@@6 Int) ) (!  (and (InRangeVec_2977 v@@7 i@@6) (= (|Select__T@[Int]Int_| (|v#Vec_2977| v@@7) i@@6) e@@0))
 :qid |SlidingNoncebaselinebpl.109:13|
 :skolemid |0|
))) (= i@@5 (- 0 1))  (and (and (InRangeVec_2977 v@@7 i@@5) (= (|Select__T@[Int]Int_| (|v#Vec_2977| v@@7) i@@5) e@@0)) (forall ((j@@0 Int) ) (!  (=> (and (>= j@@0 0) (< j@@0 i@@5)) (not (= (|Select__T@[Int]Int_| (|v#Vec_2977| v@@7) j@@0) e@@0)))
 :qid |SlidingNoncebaselinebpl.117:17|
 :skolemid |1|
)))))
 :qid |SlidingNoncebaselinebpl.113:32|
 :skolemid |2|
 :pattern ( (IndexOfVec_2977 v@@7 e@@0))
)))
(assert (forall ((|l#0| Bool) (i@@7 Int) ) (! (= (|Select__T@[Int]Bool_| (|lambda#0| |l#0|) i@@7) |l#0|)
 :qid |SlidingNoncebaselinebpl.275:54|
 :skolemid |33|
 :pattern ( (|Select__T@[Int]Bool_| (|lambda#0| |l#0|) i@@7))
)))
(assert (forall ((|l#0@@0| Int) (|l#1| Int) (|l#2| Int) (|l#3| |T@[Int]Int|) (|l#4| |T@[Int]Int|) (|l#5| Int) (|l#6| Int) (i@@8 Int) ) (! (= (|Select__T@[Int]Int_| (|lambda#2| |l#0@@0| |l#1| |l#2| |l#3| |l#4| |l#5| |l#6|) i@@8) (ite  (and (>= i@@8 |l#0@@0|) (< i@@8 |l#1|)) (ite (< i@@8 |l#2|) (|Select__T@[Int]Int_| |l#3| i@@8) (|Select__T@[Int]Int_| |l#4| (- i@@8 |l#5|))) |l#6|))
 :qid |SlidingNoncebaselinebpl.73:19|
 :skolemid |34|
 :pattern ( (|Select__T@[Int]Int_| (|lambda#2| |l#0@@0| |l#1| |l#2| |l#3| |l#4| |l#5| |l#6|) i@@8))
)))
(assert (forall ((|l#0@@1| Int) (|l#1@@0| Int) (|l#2@@0| |T@[Int]Int|) (|l#3@@0| Int) (|l#4@@0| Int) (|l#5@@0| Int) (i@@9 Int) ) (! (= (|Select__T@[Int]Int_| (|lambda#3| |l#0@@1| |l#1@@0| |l#2@@0| |l#3@@0| |l#4@@0| |l#5@@0|) i@@9) (ite  (and (<= |l#0@@1| i@@9) (< i@@9 |l#1@@0|)) (|Select__T@[Int]Int_| |l#2@@0| (- (- |l#3@@0| i@@9) |l#4@@0|)) |l#5@@0|))
 :qid |SlidingNoncebaselinebpl.82:30|
 :skolemid |35|
 :pattern ( (|Select__T@[Int]Int_| (|lambda#3| |l#0@@1| |l#1@@0| |l#2@@0| |l#3@@0| |l#4@@0| |l#5@@0|) i@@9))
)))
(assert (forall ((|l#0@@2| Int) (|l#1@@1| Int) (|l#2@@1| Int) (|l#3@@1| |T@[Int]Int|) (|l#4@@1| |T@[Int]Int|) (|l#5@@1| Int) (|l#6@@0| Int) (j@@1 Int) ) (! (= (|Select__T@[Int]Int_| (|lambda#4| |l#0@@2| |l#1@@1| |l#2@@1| |l#3@@1| |l#4@@1| |l#5@@1| |l#6@@0|) j@@1) (ite  (and (>= j@@1 |l#0@@2|) (< j@@1 |l#1@@1|)) (ite (< j@@1 |l#2@@1|) (|Select__T@[Int]Int_| |l#3@@1| j@@1) (|Select__T@[Int]Int_| |l#4@@1| (+ j@@1 |l#5@@1|))) |l#6@@0|))
 :qid |SlidingNoncebaselinebpl.63:20|
 :skolemid |36|
 :pattern ( (|Select__T@[Int]Int_| (|lambda#4| |l#0@@2| |l#1@@1| |l#2@@1| |l#3@@1| |l#4@@1| |l#5@@1| |l#6@@0|) j@@1))
)))
; Valid

(declare-fun ControlFlow (Int Int) Int)
(declare-fun $1_SlidingNonce_SlidingNonce_$memory () T@$Memory_10326)
(declare-fun _$t0 () Int)
(declare-fun _$t1 () Int)
(declare-fun $t7@0 () Int)
(declare-fun $t9@0 () Bool)
(declare-fun $t10 () Int)
(declare-fun $t6 () Bool)
(declare-fun $t7 () Int)
(declare-fun $t5 () Int)
(declare-fun |$temp_0'bool'@0| () Bool)
(declare-fun $1_SlidingNonce_SlidingNonce_$memory@1 () T@$Memory_10326)
(declare-fun |Store__T@[Int]Bool_| (|T@[Int]Bool| Int Bool) |T@[Int]Bool|)
(assert (forall ( ( ?x0 |T@[Int]Bool|) ( ?x1 Int) ( ?x2 Bool)) (! (= (|Select__T@[Int]Bool_| (|Store__T@[Int]Bool_| ?x0 ?x1 ?x2) ?x1)  ?x2) :weight 0)))
(assert (forall ( ( ?x0 |T@[Int]Bool|) ( ?x1 Int) ( ?y1 Int) ( ?x2 Bool)) (! (=>  (not (= ?x1 ?y1)) (= (|Select__T@[Int]Bool_| (|Store__T@[Int]Bool_| ?x0 ?x1 ?x2) ?y1) (|Select__T@[Int]Bool_| ?x0 ?y1))) :weight 0)))
(declare-fun $1_SlidingNonce_SlidingNonce_$memory@0 () T@$Memory_10326)
(declare-fun |Store__T@[Int]$1_SlidingNonce_SlidingNonce_| (|T@[Int]$1_SlidingNonce_SlidingNonce| Int T@$1_SlidingNonce_SlidingNonce) |T@[Int]$1_SlidingNonce_SlidingNonce|)
(declare-fun |Select__T@[Int]$1_SlidingNonce_SlidingNonce_| (|T@[Int]$1_SlidingNonce_SlidingNonce| Int) T@$1_SlidingNonce_SlidingNonce)
(assert (forall ( ( ?x0 |T@[Int]$1_SlidingNonce_SlidingNonce|) ( ?x1 Int) ( ?x2 T@$1_SlidingNonce_SlidingNonce)) (! (= (|Select__T@[Int]$1_SlidingNonce_SlidingNonce_| (|Store__T@[Int]$1_SlidingNonce_SlidingNonce_| ?x0 ?x1 ?x2) ?x1)  ?x2) :weight 0)))
(assert (forall ( ( ?x0 |T@[Int]$1_SlidingNonce_SlidingNonce|) ( ?x1 Int) ( ?y1 Int) ( ?x2 T@$1_SlidingNonce_SlidingNonce)) (! (=>  (not (= ?x1 ?y1)) (= (|Select__T@[Int]$1_SlidingNonce_SlidingNonce_| (|Store__T@[Int]$1_SlidingNonce_SlidingNonce_| ?x0 ?x1 ?x2) ?y1) (|Select__T@[Int]$1_SlidingNonce_SlidingNonce_| ?x0 ?y1))) :weight 0)))
(declare-fun |$temp_0'$1_SlidingNonce_SlidingNonce'@0| () T@$1_SlidingNonce_SlidingNonce)
(declare-fun $1_DiemTimestamp_CurrentTimeMicroseconds_$memory () T@$Memory_10094)
(push 1)
(set-info :boogie-vc-id $1_SlidingNonce_record_nonce_or_abort$verify)
(set-option :timeout 40000)
(set-option :rlimit 0)
(assert (not
 (=> (= (ControlFlow 0 0) 13619) (let ((L3_correct  (and (=> (= (ControlFlow 0 12492) (- 0 13940)) (or (not (|Select__T@[Int]Bool_| (|domain#$Memory_10326| $1_SlidingNonce_SlidingNonce_$memory) _$t0)) (not (= ($1_SlidingNonce_spec_try_record_nonce _$t0 _$t1) 0)))) (=> (or (not (|Select__T@[Int]Bool_| (|domain#$Memory_10326| $1_SlidingNonce_SlidingNonce_$memory) _$t0)) (not (= ($1_SlidingNonce_spec_try_record_nonce _$t0 _$t1) 0))) (=> (= (ControlFlow 0 12492) (- 0 13960)) (or (and (not (|Select__T@[Int]Bool_| (|domain#$Memory_10326| $1_SlidingNonce_SlidingNonce_$memory) _$t0)) (= 5 $t7@0)) (and (not (= ($1_SlidingNonce_spec_try_record_nonce _$t0 _$t1) 0)) (= 7 $t7@0))))))))
(let ((anon11_Else_correct  (=> (and (and (not $t9@0) (= $t10 $t10)) (and (= $t7@0 $t10) (= (ControlFlow 0 12420) 12492))) L3_correct)))
(let ((anon9_Then_correct  (=> $t6 (=> (and (and (and (not (|Select__T@[Int]Bool_| (|domain#$Memory_10326| $1_SlidingNonce_SlidingNonce_$memory) _$t0)) (= 5 $t7)) (= $t7 $t7)) (and (= $t7@0 $t7) (= (ControlFlow 0 12572) 12492))) L3_correct))))
(let ((anon11_Then_correct  (=> $t9@0 (and (=> (= (ControlFlow 0 12528) (- 0 13886)) (not (not (|Select__T@[Int]Bool_| (|domain#$Memory_10326| $1_SlidingNonce_SlidingNonce_$memory) _$t0)))) (=> (not (not (|Select__T@[Int]Bool_| (|domain#$Memory_10326| $1_SlidingNonce_SlidingNonce_$memory) _$t0))) (=> (= (ControlFlow 0 12528) (- 0 13899)) (not (not (= ($1_SlidingNonce_spec_try_record_nonce _$t0 _$t1) 0)))))))))
(let ((anon5_correct  (=> (|$IsValid'u64'| $t5) (=> (and (and (and (= $t5 ($1_SlidingNonce_spec_try_record_nonce _$t0 _$t1)) (= $t5 $t5)) (and (|$IsValid'u64'| 0) (= $t9@0 (= $t5 0)))) (and (and (|$IsValid'u64'| $t10) (= $t10 7)) (and (= $t10 $t10) (= $t9@0 $t9@0)))) (and (=> (= (ControlFlow 0 12404) 12528) anon11_Then_correct) (=> (= (ControlFlow 0 12404) 12420) anon11_Else_correct))))))
(let ((anon10_Else_correct  (=> (not |$temp_0'bool'@0|) (=> (and (= $1_SlidingNonce_SlidingNonce_$memory@1 ($Memory_10326 (|Store__T@[Int]Bool_| (|domain#$Memory_10326| $1_SlidingNonce_SlidingNonce_$memory) _$t0 false) (|contents#$Memory_10326| $1_SlidingNonce_SlidingNonce_$memory))) (= (ControlFlow 0 12346) 12404)) anon5_correct))))
(let ((anon10_Then_correct  (=> |$temp_0'bool'@0| (=> (and (= $1_SlidingNonce_SlidingNonce_$memory@0 ($Memory_10326 (|Store__T@[Int]Bool_| (|domain#$Memory_10326| $1_SlidingNonce_SlidingNonce_$memory) _$t0 true) (|Store__T@[Int]$1_SlidingNonce_SlidingNonce_| (|contents#$Memory_10326| $1_SlidingNonce_SlidingNonce_$memory) _$t0 |$temp_0'$1_SlidingNonce_SlidingNonce'@0|))) (= (ControlFlow 0 12542) 12404)) anon5_correct))))
(let ((anon9_Else_correct  (=> (not $t6) (and (=> (= (ControlFlow 0 12332) 12542) anon10_Then_correct) (=> (= (ControlFlow 0 12332) 12346) anon10_Else_correct)))))
(let ((anon0$1_correct  (=> (and (and (and (=> (|Select__T@[Int]Bool_| (|domain#$Memory_10094| $1_DiemTimestamp_CurrentTimeMicroseconds_$memory) 173345816) (|Select__T@[Int]Bool_| (|domain#$Memory_10326| $1_SlidingNonce_SlidingNonce_$memory) 173345816)) (=> (|Select__T@[Int]Bool_| (|domain#$Memory_10094| $1_DiemTimestamp_CurrentTimeMicroseconds_$memory) 173345816) (|Select__T@[Int]Bool_| (|domain#$Memory_10326| $1_SlidingNonce_SlidingNonce_$memory) 186537453))) (and (|$IsValid'address'| _$t0) (|$IsValid'u64'| _$t1))) (and (and (forall (($a_0 Int) ) (! (let (($rsc (|Select__T@[Int]$1_SlidingNonce_SlidingNonce_| (|contents#$Memory_10326| $1_SlidingNonce_SlidingNonce_$memory) $a_0)))
(|$IsValid'$1_SlidingNonce_SlidingNonce'| $rsc))
 :qid |SlidingNoncebaselinebpl.1218:20|
 :skolemid |32|
 :pattern ( (|Select__T@[Int]$1_SlidingNonce_SlidingNonce_| (|contents#$Memory_10326| $1_SlidingNonce_SlidingNonce_$memory) $a_0))
)) (= _$t0 _$t0)) (and (= _$t1 _$t1) (= $t6  (not (|Select__T@[Int]Bool_| (|domain#$Memory_10326| $1_SlidingNonce_SlidingNonce_$memory) _$t0)))))) (and (=> (= (ControlFlow 0 12326) 12572) anon9_Then_correct) (=> (= (ControlFlow 0 12326) 12332) anon9_Else_correct)))))
(let ((anon0_correct  (=> (= (ControlFlow 0 13619) 12326) anon0$1_correct)))
anon0_correct)))))))))))
))
(check-sat)
(pop 1)
; Valid
